
  22   10
  10   10   10   10   10   10   10   10   10   10

   0   0   0   0   0   0   0   0   0   0   0   5 2 4 19 20 21 
   6  10  10  10  10  10  10  10  10  10  10   4 18 17 15 3 
  10  10  10  10  10  10  10  10  10  10  10   3 16 14 5 
  10  10  10  10  10  10  10  10  10  10  10   4 15 14 13 6 
  10  10  10  10  10  10  10  10  10  10  10   2 13 6 
   2  10  10  10  10  10  10  10  10  10  10   1 7 
   4  10  10  10  10  10  10  10  10  10  10   1 8 
   4  10  10  10  10  10  10  10  10  10  10   1 9 
   7  10  10  10  10  10  10  10  10  10  10   1 10 
   2  10  10  10  10  10  10  10  10  10  10   1 11 
   3  10  10  10  10  10  10  10  10  10  10   1 12 
   8  10  10  10  10  10  10  10  10  10  10   1 22
   8  10  10  10  10  10  10  10  10  10  10   1 22
   8  10  10  10  10  10  10  10  10  10  10   1 22
   1  10  10  10  10  10  10  10  10  10  10   1 22
   9  10  10  10  10  10  10  10  10  10  10   1 22
   3  10  10  10  10  10  10  10  10  10  10   1 22
   5  10  10  10  10  10  10  10  10  10  10   1 22
   9  10  10  10  10  10  10  10  10  10  10   1 22
  10  10  10  10  10  10  10  10  10  10  10   1 22
   9  10  10  10  10  10  10  10  10  10  10   1 22
   0   0   0   0   0   0   0   0   0   0   0   0 
